nK = 1894;
nT = 8;
nI = 21;
L = 35;
TT = 390;
np = 1;
nc = 3;
b = [52, 60, 57, 50, 64, 22, 65, 23, 47, 43, 32, 55, 30, 28, 52, 30, 48, 36, 46, 58, 56];
d = [81, 144, 136, 103, 116, 139, 125, 55, 81, 112, 61, 115, 48, 66, 99, 55, 97, 115, 111, 90, 109];
m = [1.7, 1.5, 2, 1.5, 1, 2.4, 1.9, 2.1, 2, 2.1, 1.7, 2.5, 1.7, 2.2, 1, 1, 2.2, 1.7, 1.9, 1, 1.6];
pt = [0.3, 0.33, 0.23, 0.25, 0.28, 0.31, 0.2, 0.23];
st = [15.6, 19.47, 13.8, 10.5, 15.12, 13.02, 11.2, 12.65];
arc = {<1, 0, 1, 1, 0, 0, 0, [1, 1, 1, 1, 1, 1, 1, 1]>, <2, 1, 2, 1, 0, 0, 0, [1, 1, 1, 1, 1, 1, 1, 1]>, <3, 2, 3, 1, 0, 0, 0, [1, 1, 1, 1, 1, 1, 1, 1]>, <4, 3, 4, 1, 0, 0, 0, [1, 1, 1, 1, 1, 1, 1, 1]>, <5, 4, 5, 1, 0, 0, 0, [1, 1, 1, 1, 1, 1, 1, 1]>, <6, 5, 6, 1, 0, 0, 0, [1, 1, 1, 1, 1, 1, 1, 1]>, <7, 6, 7, 1, 0, 0, 0, [1, 1, 1, 1, 1, 1, 1, 1]>, <8, 7, 8, 1, 0, 0, 0, [1, 1, 1, 1, 1, 1, 1, 1]>, <9, 8, 9, 1, 0, 0, 0, [1, 1, 1, 1, 1, 1, 1, 1]>, <10, 9, 10, 1, 0, 0, 0, [1, 1, 1, 1, 1, 1, 1, 1]>, <11, 10, 11, 1, 0, 0, 0, [1, 1, 1, 1, 1, 1, 1, 1]>, <12, 11, 12, 1, 0, 0, 0, [1, 1, 1, 1, 1, 1, 1, 1]>, <13, 12, 13, 1, 0, 0, 0, [1, 1, 1, 1, 1, 1, 1, 1]>, <14, 13, 14, 1, 0, 0, 0, [1, 1, 1, 1, 1, 1, 1, 1]>, <15, 14, 15, 1, 0, 0, 0, [1, 1, 1, 1, 1, 1, 1, 1]>, <16, 15, 16, 1, 0, 0, 0, [1, 1, 1, 1, 1, 1, 1, 1]>, <17, 16, 17, 1, 0, 0, 0, [1, 1, 1, 1, 1, 1, 1, 1]>, <18, 17, 18, 1, 0, 0, 0, [1, 1, 1, 1, 1, 1, 1, 1]>, <19, 18, 19, 1, 0, 0, 0, [1, 1, 1, 1, 1, 1, 1, 1]>, <20, 19, 20, 1, 0, 0, 0, [1, 1, 1, 1, 1, 1, 1, 1]>, <21, 20, 21, 1, 0, 0, 0, [1, 1, 1, 1, 1, 1, 1, 1]>, <22, 21, 22, 1, 0, 0, 0, [1, 1, 1, 1, 1, 1, 1, 1]>, <23, 22, 23, 1, 0, 0, 0, [1, 1, 1, 1, 1, 1, 1, 1]>, <24, 23, 24, 1, 0, 0, 0, [1, 1, 1, 1, 1, 1, 1, 1]>, <25, 24, 25, 1, 0, 0, 0, [1, 1, 1, 1, 1, 1, 1, 1]>, <26, 25, 26, 1, 0, 0, 0, [1, 1, 1, 1, 1, 1, 1, 1]>, <27, 26, 27, 1, 0, 0, 0, [1, 1, 1, 1, 1, 1, 1, 1]>, <28, 27, 28, 1, 0, 0, 0, [1, 1, 1, 1, 1, 1, 1, 1]>, <29, 28, 29, 1, 0, 0, 0, [1, 1, 1, 1, 1, 1, 1, 1]>, <30, 29, 30, 1, 0, 0, 0, [1, 1, 1, 1, 1, 1, 1, 1]>, <31, 30, 31, 1, 0, 0, 0, [1, 1, 1, 1, 1, 1, 1, 1]>, <32, 31, 32, 1, 0, 0, 0, [1, 1, 1, 1, 1, 1, 1, 1]>, <33, 32, 33, 1, 0, 0, 0, [1, 1, 1, 1, 1, 1, 1, 1]>, <34, 33, 34, 1, 0, 0, 0, [1, 1, 1, 1, 1, 1, 1, 1]>, <35, 34, 35, 1, 0, 0, 0, [1, 1, 1, 1, 1, 1, 1, 1]>, <36, 5, 17, 12, 1, 0, 0, [1, 1, 1, 0, 0, 0, 0, 1]>, <37, 6, 18, 12, 1, 0, 0, [1, 1, 1, 0, 0, 0, 0, 1]>, <38, 14, 26, 12, 1, 0, 0, [1, 1, 1, 0, 0, 0, 0, 1]>, <39, 15, 27, 12, 1, 0, 0, [1, 1, 1, 0, 0, 0, 0, 1]>, <40, 19, 31, 12, 1, 0, 0, [1, 1, 1, 0, 0, 0, 0, 1]>, <41, 20, 32, 12, 1, 0, 0, [1, 1, 1, 0, 0, 0, 0, 1]>, <42, 21, 33, 12, 1, 0, 0, [1, 1, 1, 0, 0, 0, 0, 1]>, <43, 22, 34, 12, 1, 0, 0, [1, 1, 1, 0, 0, 0, 0, 1]>, <44, 23, 35, 12, 1, 0, 0, [1, 1, 1, 0, 0, 0, 0, 1]>, <45, 5, 14, 9, 2, 0, 1, [0, 0, 0, 0, 1, 1, 1, 1]>, <46, 6, 15, 9, 2, 0, 1, [0, 0, 0, 0, 1, 1, 1, 1]>, <47, 14, 23, 9, 2, 0, 1, [0, 0, 0, 0, 1, 1, 1, 1]>, <48, 15, 24, 9, 2, 0, 1, [0, 0, 0, 0, 1, 1, 1, 1]>, <49, 22, 31, 9, 2, 0, 1, [0, 0, 0, 0, 1, 1, 1, 1]>, <50, 23, 32, 9, 2, 0, 1, [0, 0, 0, 0, 1, 1, 1, 1]>, <51, 24, 33, 9, 2, 0, 1, [0, 0, 0, 0, 1, 1, 1, 1]>, <52, 5, 16, 11, 3, 0, 0, [0, 1, 1, 1, 1, 0, 0, 0]>, <53, 6, 17, 11, 3, 0, 0, [0, 1, 1, 1, 1, 0, 0, 0]>, <54, 14, 25, 11, 3, 0, 0, [0, 1, 1, 1, 1, 0, 0, 0]>, <55, 15, 26, 11, 3, 0, 0, [0, 1, 1, 1, 1, 0, 0, 0]>, <56, 20, 31, 11, 3, 0, 0, [0, 1, 1, 1, 1, 0, 0, 0]>, <57, 21, 32, 11, 3, 0, 0, [0, 1, 1, 1, 1, 0, 0, 0]>, <58, 22, 33, 11, 3, 0, 0, [0, 1, 1, 1, 1, 0, 0, 0]>, <59, 23, 34, 11, 3, 0, 0, [0, 1, 1, 1, 1, 0, 0, 0]>, <60, 24, 35, 11, 3, 0, 0, [0, 1, 1, 1, 1, 0, 0, 0]>, <61, 4, 17, 13, 4, 1, 0, [0, 1, 1, 1, 1, 0, 0, 0]>, <62, 5, 18, 13, 4, 1, 0, [0, 1, 1, 1, 1, 0, 0, 0]>, <63, 6, 19, 13, 4, 1, 0, [0, 1, 1, 1, 1, 0, 0, 0]>, <64, 13, 26, 13, 4, 1, 0, [0, 1, 1, 1, 1, 0, 0, 0]>, <65, 14, 27, 13, 4, 1, 0, [0, 1, 1, 1, 1, 0, 0, 0]>, <66, 15, 28, 13, 4, 1, 0, [0, 1, 1, 1, 1, 0, 0, 0]>, <67, 18, 31, 13, 4, 1, 0, [0, 1, 1, 1, 1, 0, 0, 0]>, <68, 19, 32, 13, 4, 1, 0, [0, 1, 1, 1, 1, 0, 0, 0]>, <69, 20, 33, 13, 4, 1, 0, [0, 1, 1, 1, 1, 0, 0, 0]>, <70, 21, 34, 13, 4, 1, 0, [0, 1, 1, 1, 1, 0, 0, 0]>, <71, 22, 35, 13, 4, 1, 0, [0, 1, 1, 1, 1, 0, 0, 0]>, <72, 5, 15, 10, 5, 0, 0, [0, 0, 0, 0, 1, 1, 1, 1]>, <73, 6, 16, 10, 5, 0, 0, [0, 0, 0, 0, 1, 1, 1, 1]>, <74, 14, 24, 10, 5, 0, 0, [0, 0, 0, 0, 1, 1, 1, 1]>, <75, 15, 25, 10, 5, 0, 0, [0, 0, 0, 0, 1, 1, 1, 1]>, <76, 21, 31, 10, 5, 0, 0, [0, 0, 0, 0, 1, 1, 1, 1]>, <77, 22, 32, 10, 5, 0, 0, [0, 0, 0, 0, 1, 1, 1, 1]>, <78, 23, 33, 10, 5, 0, 0, [0, 0, 0, 0, 1, 1, 1, 1]>, <79, 24, 34, 10, 5, 0, 0, [0, 0, 0, 0, 1, 1, 1, 1]>, <80, 2, 17, 15, 6, 1, 0, [0, 1, 1, 1, 1, 0, 0, 0]>, <81, 3, 18, 15, 6, 1, 0, [0, 1, 1, 1, 1, 0, 0, 0]>, <82, 4, 19, 15, 6, 1, 0, [0, 1, 1, 1, 1, 0, 0, 0]>, <83, 5, 20, 15, 6, 1, 0, [0, 1, 1, 1, 1, 0, 0, 0]>, <84, 6, 21, 15, 6, 1, 0, [0, 1, 1, 1, 1, 0, 0, 0]>, <85, 11, 26, 15, 6, 1, 0, [0, 1, 1, 1, 1, 0, 0, 0]>, <86, 12, 27, 15, 6, 1, 0, [0, 1, 1, 1, 1, 0, 0, 0]>, <87, 13, 28, 15, 6, 1, 0, [0, 1, 1, 1, 1, 0, 0, 0]>, <88, 14, 29, 15, 6, 1, 0, [0, 1, 1, 1, 1, 0, 0, 0]>, <89, 15, 30, 15, 6, 1, 0, [0, 1, 1, 1, 1, 0, 0, 0]>, <90, 16, 31, 15, 6, 1, 0, [0, 1, 1, 1, 1, 0, 0, 0]>, <91, 17, 32, 15, 6, 1, 0, [0, 1, 1, 1, 1, 0, 0, 0]>, <92, 18, 33, 15, 6, 1, 0, [0, 1, 1, 1, 1, 0, 0, 0]>, <93, 19, 34, 15, 6, 1, 0, [0, 1, 1, 1, 1, 0, 0, 0]>, <94, 20, 35, 15, 6, 1, 0, [0, 1, 1, 1, 1, 0, 0, 0]>, <95, 5, 17, 12, 7, 0, 0, [1, 1, 1, 0, 0, 0, 0, 1]>, <96, 6, 18, 12, 7, 0, 0, [1, 1, 1, 0, 0, 0, 0, 1]>, <97, 14, 26, 12, 7, 0, 0, [1, 1, 1, 0, 0, 0, 0, 1]>, <98, 15, 27, 12, 7, 0, 0, [1, 1, 1, 0, 0, 0, 0, 1]>, <99, 19, 31, 12, 7, 0, 0, [1, 1, 1, 0, 0, 0, 0, 1]>, <100, 20, 32, 12, 7, 0, 0, [1, 1, 1, 0, 0, 0, 0, 1]>, <101, 21, 33, 12, 7, 0, 0, [1, 1, 1, 0, 0, 0, 0, 1]>, <102, 22, 34, 12, 7, 0, 0, [1, 1, 1, 0, 0, 0, 0, 1]>, <103, 23, 35, 12, 7, 0, 0, [1, 1, 1, 0, 0, 0, 0, 1]>, <104, 3, 17, 14, 8, 0, 0, [1, 0, 0, 0, 0, 1, 1, 1]>, <105, 4, 18, 14, 8, 0, 0, [1, 0, 0, 0, 0, 1, 1, 1]>, <106, 5, 19, 14, 8, 0, 0, [1, 0, 0, 0, 0, 1, 1, 1]>, <107, 6, 20, 14, 8, 0, 0, [1, 0, 0, 0, 0, 1, 1, 1]>, <108, 12, 26, 14, 8, 0, 0, [1, 0, 0, 0, 0, 1, 1, 1]>, <109, 13, 27, 14, 8, 0, 0, [1, 0, 0, 0, 0, 1, 1, 1]>, <110, 14, 28, 14, 8, 0, 0, [1, 0, 0, 0, 0, 1, 1, 1]>, <111, 15, 29, 14, 8, 0, 0, [1, 0, 0, 0, 0, 1, 1, 1]>, <112, 17, 31, 14, 8, 0, 0, [1, 0, 0, 0, 0, 1, 1, 1]>, <113, 18, 32, 14, 8, 0, 0, [1, 0, 0, 0, 0, 1, 1, 1]>, <114, 19, 33, 14, 8, 0, 0, [1, 0, 0, 0, 0, 1, 1, 1]>, <115, 20, 34, 14, 8, 0, 0, [1, 0, 0, 0, 0, 1, 1, 1]>, <116, 21, 35, 14, 8, 0, 0, [1, 0, 0, 0, 0, 1, 1, 1]>, <117, 5, 16, 11, 9, 0, 0, [0, 0, 0, 1, 1, 1, 1, 0]>, <118, 6, 17, 11, 9, 0, 0, [0, 0, 0, 1, 1, 1, 1, 0]>, <119, 14, 25, 11, 9, 0, 0, [0, 0, 0, 1, 1, 1, 1, 0]>, <120, 15, 26, 11, 9, 0, 0, [0, 0, 0, 1, 1, 1, 1, 0]>, <121, 20, 31, 11, 9, 0, 0, [0, 0, 0, 1, 1, 1, 1, 0]>, <122, 21, 32, 11, 9, 0, 0, [0, 0, 0, 1, 1, 1, 1, 0]>, <123, 22, 33, 11, 9, 0, 0, [0, 0, 0, 1, 1, 1, 1, 0]>, <124, 23, 34, 11, 9, 0, 0, [0, 0, 0, 1, 1, 1, 1, 0]>, <125, 24, 35, 11, 9, 0, 0, [0, 0, 0, 1, 1, 1, 1, 0]>, <126, 5, 15, 10, 10, 0, 0, [1, 1, 0, 0, 0, 0, 1, 1]>, <127, 6, 16, 10, 10, 0, 0, [1, 1, 0, 0, 0, 0, 1, 1]>, <128, 14, 24, 10, 10, 0, 0, [1, 1, 0, 0, 0, 0, 1, 1]>, <129, 15, 25, 10, 10, 0, 0, [1, 1, 0, 0, 0, 0, 1, 1]>, <130, 21, 31, 10, 10, 0, 0, [1, 1, 0, 0, 0, 0, 1, 1]>, <131, 22, 32, 10, 10, 0, 0, [1, 1, 0, 0, 0, 0, 1, 1]>, <132, 23, 33, 10, 10, 0, 0, [1, 1, 0, 0, 0, 0, 1, 1]>, <133, 24, 34, 10, 10, 0, 0, [1, 1, 0, 0, 0, 0, 1, 1]>, <134, 5, 16, 11, 11, 0, 1, [0, 0, 0, 0, 1, 1, 1, 1]>, <135, 6, 17, 11, 11, 0, 1, [0, 0, 0, 0, 1, 1, 1, 1]>, <136, 14, 25, 11, 11, 0, 1, [0, 0, 0, 0, 1, 1, 1, 1]>, <137, 15, 26, 11, 11, 0, 1, [0, 0, 0, 0, 1, 1, 1, 1]>, <138, 20, 31, 11, 11, 0, 1, [0, 0, 0, 0, 1, 1, 1, 1]>, <139, 21, 32, 11, 11, 0, 1, [0, 0, 0, 0, 1, 1, 1, 1]>, <140, 22, 33, 11, 11, 0, 1, [0, 0, 0, 0, 1, 1, 1, 1]>, <141, 23, 34, 11, 11, 0, 1, [0, 0, 0, 0, 1, 1, 1, 1]>, <142, 24, 35, 11, 11, 0, 1, [0, 0, 0, 0, 1, 1, 1, 1]>, <143, 4, 17, 13, 12, 1, 0, [1, 0, 0, 0, 0, 1, 1, 1]>, <144, 5, 18, 13, 12, 1, 0, [1, 0, 0, 0, 0, 1, 1, 1]>, <145, 6, 19, 13, 12, 1, 0, [1, 0, 0, 0, 0, 1, 1, 1]>, <146, 13, 26, 13, 12, 1, 0, [1, 0, 0, 0, 0, 1, 1, 1]>, <147, 14, 27, 13, 12, 1, 0, [1, 0, 0, 0, 0, 1, 1, 1]>, <148, 15, 28, 13, 12, 1, 0, [1, 0, 0, 0, 0, 1, 1, 1]>, <149, 18, 31, 13, 12, 1, 0, [1, 0, 0, 0, 0, 1, 1, 1]>, <150, 19, 32, 13, 12, 1, 0, [1, 0, 0, 0, 0, 1, 1, 1]>, <151, 20, 33, 13, 12, 1, 0, [1, 0, 0, 0, 0, 1, 1, 1]>, <152, 21, 34, 13, 12, 1, 0, [1, 0, 0, 0, 0, 1, 1, 1]>, <153, 22, 35, 13, 12, 1, 0, [1, 0, 0, 0, 0, 1, 1, 1]>, <154, 5, 17, 12, 13, 0, 0, [1, 1, 1, 1, 0, 0, 0, 0]>, <155, 6, 18, 12, 13, 0, 0, [1, 1, 1, 1, 0, 0, 0, 0]>, <156, 14, 26, 12, 13, 0, 0, [1, 1, 1, 1, 0, 0, 0, 0]>, <157, 15, 27, 12, 13, 0, 0, [1, 1, 1, 1, 0, 0, 0, 0]>, <158, 19, 31, 12, 13, 0, 0, [1, 1, 1, 1, 0, 0, 0, 0]>, <159, 20, 32, 12, 13, 0, 0, [1, 1, 1, 1, 0, 0, 0, 0]>, <160, 21, 33, 12, 13, 0, 0, [1, 1, 1, 1, 0, 0, 0, 0]>, <161, 22, 34, 12, 13, 0, 0, [1, 1, 1, 1, 0, 0, 0, 0]>, <162, 23, 35, 12, 13, 0, 0, [1, 1, 1, 1, 0, 0, 0, 0]>, <163, 5, 15, 10, 14, 0, 1, [0, 0, 1, 1, 1, 1, 0, 0]>, <164, 6, 16, 10, 14, 0, 1, [0, 0, 1, 1, 1, 1, 0, 0]>, <165, 14, 24, 10, 14, 0, 1, [0, 0, 1, 1, 1, 1, 0, 0]>, <166, 15, 25, 10, 14, 0, 1, [0, 0, 1, 1, 1, 1, 0, 0]>, <167, 21, 31, 10, 14, 0, 1, [0, 0, 1, 1, 1, 1, 0, 0]>, <168, 22, 32, 10, 14, 0, 1, [0, 0, 1, 1, 1, 1, 0, 0]>, <169, 23, 33, 10, 14, 0, 1, [0, 0, 1, 1, 1, 1, 0, 0]>, <170, 24, 34, 10, 14, 0, 1, [0, 0, 1, 1, 1, 1, 0, 0]>, <171, 5, 16, 11, 15, 0, 0, [1, 1, 0, 0, 0, 0, 1, 1]>, <172, 6, 17, 11, 15, 0, 0, [1, 1, 0, 0, 0, 0, 1, 1]>, <173, 14, 25, 11, 15, 0, 0, [1, 1, 0, 0, 0, 0, 1, 1]>, <174, 15, 26, 11, 15, 0, 0, [1, 1, 0, 0, 0, 0, 1, 1]>, <175, 20, 31, 11, 15, 0, 0, [1, 1, 0, 0, 0, 0, 1, 1]>, <176, 21, 32, 11, 15, 0, 0, [1, 1, 0, 0, 0, 0, 1, 1]>, <177, 22, 33, 11, 15, 0, 0, [1, 1, 0, 0, 0, 0, 1, 1]>, <178, 23, 34, 11, 15, 0, 0, [1, 1, 0, 0, 0, 0, 1, 1]>, <179, 24, 35, 11, 15, 0, 0, [1, 1, 0, 0, 0, 0, 1, 1]>, <180, 5, 17, 12, 16, 0, 0, [0, 0, 0, 1, 1, 1, 1, 0]>, <181, 6, 18, 12, 16, 0, 0, [0, 0, 0, 1, 1, 1, 1, 0]>, <182, 14, 26, 12, 16, 0, 0, [0, 0, 0, 1, 1, 1, 1, 0]>, <183, 15, 27, 12, 16, 0, 0, [0, 0, 0, 1, 1, 1, 1, 0]>, <184, 19, 31, 12, 16, 0, 0, [0, 0, 0, 1, 1, 1, 1, 0]>, <185, 20, 32, 12, 16, 0, 0, [0, 0, 0, 1, 1, 1, 1, 0]>, <186, 21, 33, 12, 16, 0, 0, [0, 0, 0, 1, 1, 1, 1, 0]>, <187, 22, 34, 12, 16, 0, 0, [0, 0, 0, 1, 1, 1, 1, 0]>, <188, 23, 35, 12, 16, 0, 0, [0, 0, 0, 1, 1, 1, 1, 0]>, <189, 5, 17, 12, 17, 0, 0, [1, 1, 1, 1, 0, 0, 0, 0]>, <190, 6, 18, 12, 17, 0, 0, [1, 1, 1, 1, 0, 0, 0, 0]>, <191, 14, 26, 12, 17, 0, 0, [1, 1, 1, 1, 0, 0, 0, 0]>, <192, 15, 27, 12, 17, 0, 0, [1, 1, 1, 1, 0, 0, 0, 0]>, <193, 19, 31, 12, 17, 0, 0, [1, 1, 1, 1, 0, 0, 0, 0]>, <194, 20, 32, 12, 17, 0, 0, [1, 1, 1, 1, 0, 0, 0, 0]>, <195, 21, 33, 12, 17, 0, 0, [1, 1, 1, 1, 0, 0, 0, 0]>, <196, 22, 34, 12, 17, 0, 0, [1, 1, 1, 1, 0, 0, 0, 0]>, <197, 23, 35, 12, 17, 0, 0, [1, 1, 1, 1, 0, 0, 0, 0]>, <198, 5, 17, 12, 18, 0, 0, [0, 0, 0, 1, 1, 1, 1, 0]>, <199, 6, 18, 12, 18, 0, 0, [0, 0, 0, 1, 1, 1, 1, 0]>, <200, 14, 26, 12, 18, 0, 0, [0, 0, 0, 1, 1, 1, 1, 0]>, <201, 15, 27, 12, 18, 0, 0, [0, 0, 0, 1, 1, 1, 1, 0]>, <202, 19, 31, 12, 18, 0, 0, [0, 0, 0, 1, 1, 1, 1, 0]>, <203, 20, 32, 12, 18, 0, 0, [0, 0, 0, 1, 1, 1, 1, 0]>, <204, 21, 33, 12, 18, 0, 0, [0, 0, 0, 1, 1, 1, 1, 0]>, <205, 22, 34, 12, 18, 0, 0, [0, 0, 0, 1, 1, 1, 1, 0]>, <206, 23, 35, 12, 18, 0, 0, [0, 0, 0, 1, 1, 1, 1, 0]>, <207, 5, 16, 11, 19, 0, 1, [0, 0, 0, 1, 1, 1, 1, 0]>, <208, 6, 17, 11, 19, 0, 1, [0, 0, 0, 1, 1, 1, 1, 0]>, <209, 14, 25, 11, 19, 0, 1, [0, 0, 0, 1, 1, 1, 1, 0]>, <210, 15, 26, 11, 19, 0, 1, [0, 0, 0, 1, 1, 1, 1, 0]>, <211, 20, 31, 11, 19, 0, 1, [0, 0, 0, 1, 1, 1, 1, 0]>, <212, 21, 32, 11, 19, 0, 1, [0, 0, 0, 1, 1, 1, 1, 0]>, <213, 22, 33, 11, 19, 0, 1, [0, 0, 0, 1, 1, 1, 1, 0]>, <214, 23, 34, 11, 19, 0, 1, [0, 0, 0, 1, 1, 1, 1, 0]>, <215, 24, 35, 11, 19, 0, 1, [0, 0, 0, 1, 1, 1, 1, 0]>, <216, 4, 17, 13, 20, 0, 1, [1, 0, 0, 0, 0, 1, 1, 1]>, <217, 5, 18, 13, 20, 0, 1, [1, 0, 0, 0, 0, 1, 1, 1]>, <218, 6, 19, 13, 20, 0, 1, [1, 0, 0, 0, 0, 1, 1, 1]>, <219, 13, 26, 13, 20, 0, 1, [1, 0, 0, 0, 0, 1, 1, 1]>, <220, 14, 27, 13, 20, 0, 1, [1, 0, 0, 0, 0, 1, 1, 1]>, <221, 15, 28, 13, 20, 0, 1, [1, 0, 0, 0, 0, 1, 1, 1]>, <222, 18, 31, 13, 20, 0, 1, [1, 0, 0, 0, 0, 1, 1, 1]>, <223, 19, 32, 13, 20, 0, 1, [1, 0, 0, 0, 0, 1, 1, 1]>, <224, 20, 33, 13, 20, 0, 1, [1, 0, 0, 0, 0, 1, 1, 1]>, <225, 21, 34, 13, 20, 0, 1, [1, 0, 0, 0, 0, 1, 1, 1]>, <226, 22, 35, 13, 20, 0, 1, [1, 0, 0, 0, 0, 1, 1, 1]>, <227, 5, 14, 9, 21, 0, 1, [1, 0, 0, 0, 0, 1, 1, 1]>, <228, 6, 15, 9, 21, 0, 1, [1, 0, 0, 0, 0, 1, 1, 1]>, <229, 14, 23, 9, 21, 0, 1, [1, 0, 0, 0, 0, 1, 1, 1]>, <230, 15, 24, 9, 21, 0, 1, [1, 0, 0, 0, 0, 1, 1, 1]>, <231, 22, 31, 9, 21, 0, 1, [1, 0, 0, 0, 0, 1, 1, 1]>, <232, 23, 32, 9, 21, 0, 1, [1, 0, 0, 0, 0, 1, 1, 1]>, <233, 24, 33, 9, 21, 0, 1, [1, 0, 0, 0, 0, 1, 1, 1]>};
